(set-logic HORN)
(declare-datatypes ((Nat_434 0)) (((Z_1522 ) (S_359 (unS_514 Nat_434)))))
(declare-fun diseqNat_434 (Nat_434 Nat_434) Bool)
(declare-fun unS_515 (Nat_434 Nat_434) Bool)
(declare-fun isZ_330 (Nat_434) Bool)
(declare-fun isS_330 (Nat_434) Bool)
(assert (forall ((x_46806 Nat_434))
	(unS_515 x_46806 (S_359 x_46806))))
(assert (isZ_330 Z_1522))
(assert (forall ((x_46808 Nat_434))
	(isS_330 (S_359 x_46808))))
(assert (forall ((x_46809 Nat_434))
	(diseqNat_434 Z_1522 (S_359 x_46809))))
(assert (forall ((x_46810 Nat_434))
	(diseqNat_434 (S_359 x_46810) Z_1522)))
(assert (forall ((x_46811 Nat_434) (x_46812 Nat_434))
	(=> (diseqNat_434 x_46811 x_46812)
	    (diseqNat_434 (S_359 x_46811) (S_359 x_46812)))))
(declare-fun add_276 (Nat_434 Nat_434 Nat_434) Bool)
(declare-fun minus_272 (Nat_434 Nat_434 Nat_434) Bool)
(declare-fun le_257 (Nat_434 Nat_434) Bool)
(declare-fun ge_257 (Nat_434 Nat_434) Bool)
(declare-fun lt_274 (Nat_434 Nat_434) Bool)
(declare-fun gt_260 (Nat_434 Nat_434) Bool)
(declare-fun mult_257 (Nat_434 Nat_434 Nat_434) Bool)
(declare-fun div_257 (Nat_434 Nat_434 Nat_434) Bool)
(declare-fun mod_259 (Nat_434 Nat_434 Nat_434) Bool)
(assert (forall ((y_1689 Nat_434))
	(add_276 y_1689 Z_1522 y_1689)))
(assert (forall ((x_46797 Nat_434) (y_1689 Nat_434) (r_318 Nat_434))
	(=> (add_276 r_318 x_46797 y_1689)
	    (add_276 (S_359 r_318) (S_359 x_46797) y_1689))))
(assert (forall ((y_1689 Nat_434))
	(minus_272 Z_1522 Z_1522 y_1689)))
(assert (forall ((x_46797 Nat_434) (y_1689 Nat_434) (r_318 Nat_434))
	(=> (minus_272 r_318 x_46797 y_1689)
	    (minus_272 (S_359 r_318) (S_359 x_46797) y_1689))))
(assert (forall ((y_1689 Nat_434))
	(le_257 Z_1522 y_1689)))
(assert (forall ((x_46797 Nat_434) (y_1689 Nat_434))
	(=> (le_257 x_46797 y_1689)
	    (le_257 (S_359 x_46797) (S_359 y_1689)))))
(assert (forall ((y_1689 Nat_434))
	(ge_257 y_1689 Z_1522)))
(assert (forall ((x_46797 Nat_434) (y_1689 Nat_434))
	(=> (ge_257 x_46797 y_1689)
	    (ge_257 (S_359 x_46797) (S_359 y_1689)))))
(assert (forall ((y_1689 Nat_434))
	(lt_274 Z_1522 (S_359 y_1689))))
(assert (forall ((x_46797 Nat_434) (y_1689 Nat_434))
	(=> (lt_274 x_46797 y_1689)
	    (lt_274 (S_359 x_46797) (S_359 y_1689)))))
(assert (forall ((y_1689 Nat_434))
	(gt_260 (S_359 y_1689) Z_1522)))
(assert (forall ((x_46797 Nat_434) (y_1689 Nat_434))
	(=> (gt_260 x_46797 y_1689)
	    (gt_260 (S_359 x_46797) (S_359 y_1689)))))
(assert (forall ((y_1689 Nat_434))
	(mult_257 Z_1522 Z_1522 y_1689)))
(assert (forall ((x_46797 Nat_434) (y_1689 Nat_434) (r_318 Nat_434) (z_1523 Nat_434))
	(=>	(and (mult_257 r_318 x_46797 y_1689)
			(add_276 z_1523 r_318 y_1689))
		(mult_257 z_1523 (S_359 x_46797) y_1689))))
(assert (forall ((x_46797 Nat_434) (y_1689 Nat_434))
	(=> (lt_274 x_46797 y_1689)
	    (div_257 Z_1522 x_46797 y_1689))))
(assert (forall ((x_46797 Nat_434) (y_1689 Nat_434) (r_318 Nat_434) (z_1523 Nat_434))
	(=>	(and (ge_257 x_46797 y_1689)
			(minus_272 z_1523 x_46797 y_1689)
			(div_257 r_318 z_1523 y_1689))
		(div_257 (S_359 r_318) x_46797 y_1689))))
(assert (forall ((x_46797 Nat_434) (y_1689 Nat_434))
	(=> (lt_274 x_46797 y_1689)
	    (mod_259 x_46797 x_46797 y_1689))))
(assert (forall ((x_46797 Nat_434) (y_1689 Nat_434) (r_318 Nat_434) (z_1523 Nat_434))
	(=>	(and (ge_257 x_46797 y_1689)
			(minus_272 z_1523 x_46797 y_1689)
			(mod_259 r_318 z_1523 y_1689))
		(mod_259 r_318 x_46797 y_1689))))
(declare-datatypes ((list_183 0)) (((nil_208 ) (cons_183 (head_366 Nat_434) (tail_366 list_183)))))
(declare-fun diseqlist_183 (list_183 list_183) Bool)
(declare-fun head_367 (Nat_434 list_183) Bool)
(declare-fun tail_367 (list_183 list_183) Bool)
(declare-fun isnil_208 (list_183) Bool)
(declare-fun iscons_183 (list_183) Bool)
(assert (forall ((x_46814 Nat_434) (x_46815 list_183))
	(head_367 x_46814 (cons_183 x_46814 x_46815))))
(assert (forall ((x_46814 Nat_434) (x_46815 list_183))
	(tail_367 x_46815 (cons_183 x_46814 x_46815))))
(assert (isnil_208 nil_208))
(assert (forall ((x_46817 Nat_434) (x_46818 list_183))
	(iscons_183 (cons_183 x_46817 x_46818))))
(assert (forall ((x_46819 Nat_434) (x_46820 list_183))
	(diseqlist_183 nil_208 (cons_183 x_46819 x_46820))))
(assert (forall ((x_46821 Nat_434) (x_46822 list_183))
	(diseqlist_183 (cons_183 x_46821 x_46822) nil_208)))
(assert (forall ((x_46823 Nat_434) (x_46824 list_183) (x_46825 Nat_434) (x_46826 list_183))
	(=> (diseqNat_434 x_46823 x_46825)
	    (diseqlist_183 (cons_183 x_46823 x_46824) (cons_183 x_46825 x_46826)))))
(assert (forall ((x_46823 Nat_434) (x_46824 list_183) (x_46825 Nat_434) (x_46826 list_183))
	(=> (diseqlist_183 x_46824 x_46826)
	    (diseqlist_183 (cons_183 x_46823 x_46824) (cons_183 x_46825 x_46826)))))
(declare-datatypes ((pair_74 0)) (((pair_75 (projpair_148 list_183) (projpair_149 list_183)))))
(declare-fun diseqpair_37 (pair_74 pair_74) Bool)
(declare-fun projpair_150 (list_183 pair_74) Bool)
(declare-fun projpair_151 (list_183 pair_74) Bool)
(declare-fun ispair_37 (pair_74) Bool)
(assert (forall ((x_46827 list_183) (x_46828 list_183))
	(projpair_150 x_46827 (pair_75 x_46827 x_46828))))
(assert (forall ((x_46827 list_183) (x_46828 list_183))
	(projpair_151 x_46828 (pair_75 x_46827 x_46828))))
(assert (forall ((x_46830 list_183) (x_46831 list_183))
	(ispair_37 (pair_75 x_46830 x_46831))))
(assert (forall ((x_46832 list_183) (x_46833 list_183) (x_46834 list_183) (x_46835 list_183))
	(=> (diseqlist_183 x_46832 x_46834)
	    (diseqpair_37 (pair_75 x_46832 x_46833) (pair_75 x_46834 x_46835)))))
(assert (forall ((x_46832 list_183) (x_46833 list_183) (x_46834 list_183) (x_46835 list_183))
	(=> (diseqlist_183 x_46833 x_46835)
	    (diseqpair_37 (pair_75 x_46832 x_46833) (pair_75 x_46834 x_46835)))))
(declare-fun twoThirds_3 (Nat_434 Nat_434) Bool)
(assert (twoThirds_3 (S_359 Z_1522) (S_359 (S_359 Z_1522))))
(assert (=> (diseqNat_434 (S_359 Z_1522) (S_359 (S_359 Z_1522)))
	    (twoThirds_3 (S_359 Z_1522) (S_359 Z_1522))))
(assert (twoThirds_3 (S_359 Z_1522) (S_359 (S_359 Z_1522))))
(assert (=>	(and (diseqNat_434 Z_1522 (S_359 (S_359 Z_1522)))
			(diseqNat_434 Z_1522 (S_359 Z_1522)))
		(twoThirds_3 Z_1522 Z_1522)))
(assert (twoThirds_3 (S_359 Z_1522) (S_359 (S_359 Z_1522))))
(assert (=> (diseqNat_434 (S_359 Z_1522) (S_359 (S_359 Z_1522)))
	    (twoThirds_3 (S_359 Z_1522) (S_359 Z_1522))))
(assert (twoThirds_3 (S_359 Z_1522) (S_359 (S_359 Z_1522))))
(assert (forall ((x_46799 Nat_434) (x_46735 Nat_434) (x_46736 Nat_434) (x_46711 Nat_434))
	(=>	(and (diseqNat_434 x_46711 (S_359 (S_359 Z_1522)))
			(diseqNat_434 x_46711 (S_359 Z_1522))
			(diseqNat_434 x_46711 Z_1522)
			(twoThirds_3 x_46736 x_46799)
			(minus_272 x_46799 x_46711 (S_359 (S_359 (S_359 Z_1522))))
			(add_276 x_46735 (S_359 (S_359 Z_1522)) x_46736))
		(twoThirds_3 x_46735 x_46711))))
(declare-fun third_7 (Nat_434 Nat_434) Bool)
(assert (third_7 Z_1522 (S_359 (S_359 Z_1522))))
(assert (=> (diseqNat_434 (S_359 Z_1522) (S_359 (S_359 Z_1522)))
	    (third_7 Z_1522 (S_359 Z_1522))))
(assert (third_7 Z_1522 (S_359 (S_359 Z_1522))))
(assert (=>	(and (diseqNat_434 Z_1522 (S_359 (S_359 Z_1522)))
			(diseqNat_434 Z_1522 (S_359 Z_1522)))
		(third_7 Z_1522 Z_1522)))
(assert (third_7 Z_1522 (S_359 (S_359 Z_1522))))
(assert (=> (diseqNat_434 (S_359 Z_1522) (S_359 (S_359 Z_1522)))
	    (third_7 Z_1522 (S_359 Z_1522))))
(assert (third_7 Z_1522 (S_359 (S_359 Z_1522))))
(assert (forall ((x_46801 Nat_434) (x_46744 Nat_434) (x_46745 Nat_434) (x_46712 Nat_434))
	(=>	(and (diseqNat_434 x_46712 (S_359 (S_359 Z_1522)))
			(diseqNat_434 x_46712 (S_359 Z_1522))
			(diseqNat_434 x_46712 Z_1522)
			(third_7 x_46745 x_46801)
			(minus_272 x_46801 x_46712 (S_359 (S_359 (S_359 Z_1522))))
			(add_276 x_46744 (S_359 Z_1522) x_46745))
		(third_7 x_46744 x_46712))))
(declare-fun take_40 (list_183 Nat_434 list_183) Bool)
(assert (forall ((x_46713 Nat_434) (y_1679 list_183))
	(=> (le_257 x_46713 Z_1522)
	    (take_40 nil_208 x_46713 y_1679))))
(assert (forall ((x_46802 Nat_434) (x_46748 list_183) (z_1517 Nat_434) (xs_498 list_183) (x_46713 Nat_434))
	(=>	(and (gt_260 x_46713 Z_1522)
			(take_40 x_46748 x_46802 xs_498)
			(minus_272 x_46802 x_46713 (S_359 Z_1522)))
		(take_40 (cons_183 z_1517 x_46748) x_46713 (cons_183 z_1517 xs_498)))))
(assert (forall ((x_46713 Nat_434) (y_1679 list_183))
	(=> (le_257 x_46713 Z_1522)
	    (take_40 nil_208 x_46713 y_1679))))
(assert (forall ((x_46713 Nat_434))
	(=> (gt_260 x_46713 Z_1522)
	    (take_40 nil_208 x_46713 nil_208))))
(declare-fun sort_27 (list_183 Nat_434 Nat_434) Bool)
(assert (forall ((x_46714 Nat_434) (y_1680 Nat_434))
	(=> (le_257 x_46714 y_1680)
	    (sort_27 (cons_183 x_46714 (cons_183 y_1680 nil_208)) x_46714 y_1680))))
(assert (forall ((x_46714 Nat_434) (y_1680 Nat_434))
	(=> (gt_260 x_46714 y_1680)
	    (sort_27 (cons_183 y_1680 (cons_183 x_46714 nil_208)) x_46714 y_1680))))
(declare-fun length_30 (Nat_434 list_183) Bool)
(assert (forall ((x_46753 Nat_434) (x_46754 Nat_434) (y_1681 Nat_434) (l_32 list_183))
	(=>	(and (length_30 x_46754 l_32)
			(add_276 x_46753 (S_359 Z_1522) x_46754))
		(length_30 x_46753 (cons_183 y_1681 l_32)))))
(assert (length_30 Z_1522 nil_208))
(declare-fun insert_23 (list_183 Nat_434 list_183) Bool)
(assert (forall ((z_1518 Nat_434) (xs_499 list_183) (x_46716 Nat_434))
	(=> (le_257 x_46716 z_1518)
	    (insert_23 (cons_183 x_46716 (cons_183 z_1518 xs_499)) x_46716 (cons_183 z_1518 xs_499)))))
(assert (forall ((x_46758 list_183) (z_1518 Nat_434) (xs_499 list_183) (x_46716 Nat_434))
	(=>	(and (gt_260 x_46716 z_1518)
			(insert_23 x_46758 x_46716 xs_499))
		(insert_23 (cons_183 z_1518 x_46758) x_46716 (cons_183 z_1518 xs_499)))))
(assert (forall ((x_46716 Nat_434))
	(insert_23 (cons_183 x_46716 nil_208) x_46716 nil_208)))
(declare-fun isort_23 (list_183 list_183) Bool)
(assert (forall ((x_46760 list_183) (x_46761 list_183) (y_1683 Nat_434) (xs_500 list_183))
	(=>	(and (isort_23 x_46761 xs_500)
			(insert_23 x_46760 y_1683 x_46761))
		(isort_23 x_46760 (cons_183 y_1683 xs_500)))))
(assert (isort_23 nil_208 nil_208))
(declare-fun drop_42 (list_183 Nat_434 list_183) Bool)
(assert (forall ((x_46764 list_183) (x_46718 Nat_434))
	(=> (le_257 x_46718 Z_1522)
	    (drop_42 x_46764 x_46718 x_46764))))
(assert (forall ((x_46804 Nat_434) (x_46765 list_183) (z_1519 Nat_434) (xs_501 list_183) (x_46718 Nat_434))
	(=>	(and (gt_260 x_46718 Z_1522)
			(drop_42 x_46765 x_46804 xs_501)
			(minus_272 x_46804 x_46718 (S_359 Z_1522)))
		(drop_42 x_46765 x_46718 (cons_183 z_1519 xs_501)))))
(assert (forall ((x_46767 list_183) (x_46718 Nat_434))
	(=> (le_257 x_46718 Z_1522)
	    (drop_42 x_46767 x_46718 x_46767))))
(assert (forall ((x_46718 Nat_434))
	(=> (gt_260 x_46718 Z_1522)
	    (drop_42 nil_208 x_46718 nil_208))))
(declare-fun splitAt_18 (pair_74 Nat_434 list_183) Bool)
(assert (forall ((x_46770 list_183) (x_46771 list_183) (x_46719 Nat_434) (y_1685 list_183))
	(=>	(and (take_40 x_46770 x_46719 y_1685)
			(drop_42 x_46771 x_46719 y_1685))
		(splitAt_18 (pair_75 x_46770 x_46771) x_46719 y_1685))))
(declare-fun x_46720 (list_183 list_183 list_183) Bool)
(assert (forall ((x_46773 list_183) (z_1520 Nat_434) (xs_502 list_183) (y_1686 list_183))
	(=> (x_46720 x_46773 xs_502 y_1686)
	    (x_46720 (cons_183 z_1520 x_46773) (cons_183 z_1520 xs_502) y_1686))))
(assert (forall ((x_46774 list_183))
	(x_46720 x_46774 nil_208 x_46774)))
(declare-fun nstoogesort_21 (list_183 list_183) Bool)
(declare-fun nstoogesort_22 (list_183 list_183) Bool)
(declare-fun nstoogesort_23 (list_183 list_183) Bool)
(assert (forall ((x_46778 list_183) (x_46779 list_183) (x_46775 Nat_434) (x_46776 Nat_434) (ys_157 list_183) (zs_53 list_183) (x_46722 list_183))
	(=>	(and (nstoogesort_22 x_46779 ys_157)
			(x_46720 x_46778 x_46779 zs_53)
			(length_30 x_46775 x_46722)
			(twoThirds_3 x_46776 x_46775)
			(splitAt_18 (pair_75 ys_157 zs_53) x_46776 x_46722))
		(nstoogesort_21 x_46778 x_46722))))
(assert (forall ((x_46781 list_183) (x_46782 list_183) (x_46783 list_183) (x_46725 Nat_434) (x_46726 list_183) (y_1688 Nat_434) (y_1687 Nat_434))
	(=>	(and (nstoogesort_21 x_46782 (cons_183 y_1687 (cons_183 y_1688 (cons_183 x_46725 x_46726))))
			(nstoogesort_23 x_46783 x_46782)
			(nstoogesort_21 x_46781 x_46783))
		(nstoogesort_22 x_46781 (cons_183 y_1687 (cons_183 y_1688 (cons_183 x_46725 x_46726)))))))
(assert (forall ((x_46785 list_183) (y_1688 Nat_434) (y_1687 Nat_434))
	(=> (sort_27 x_46785 y_1687 y_1688)
	    (nstoogesort_22 x_46785 (cons_183 y_1687 (cons_183 y_1688 nil_208))))))
(assert (forall ((y_1687 Nat_434))
	(nstoogesort_22 (cons_183 y_1687 nil_208) (cons_183 y_1687 nil_208))))
(assert (nstoogesort_22 nil_208 nil_208))
(assert (forall ((x_46792 list_183) (x_46793 list_183) (x_46789 Nat_434) (x_46790 Nat_434) (ys_158 list_183) (zs_54 list_183) (x_46727 list_183))
	(=>	(and (nstoogesort_22 x_46793 zs_54)
			(x_46720 x_46792 ys_158 x_46793)
			(length_30 x_46789 x_46727)
			(third_7 x_46790 x_46789)
			(splitAt_18 (pair_75 ys_158 zs_54) x_46790 x_46727))
		(nstoogesort_23 x_46792 x_46727))))
(assert (forall ((x_46795 list_183) (x_46796 list_183) (xs_503 list_183))
	(=>	(and true
			(diseqlist_183 x_46795 x_46796)
			(nstoogesort_22 x_46795 xs_503)
			(isort_23 x_46796 xs_503))
		false)))
(check-sat)
